$ Direct Text Input for Nastran System Cell Section
NASTRAN SYSTEM(151)=1
NASTRAN BUFFSIZE=65537
NASTRAN DBCFACT=4
SOL 101
CEND
$ Direct Text Input for Global Case Control Data
TITLE = QStatic_COMBO
ECHO = NONE
LINES=50000
SUBCASE 1
$ Subcase name : QStatic_0deg
   SUBTITLE=QStatic_0deg
   SPC = 2
   LOAD = 11
$   DISPLACEMENT(SORT1,REAL)=ALL
   SET 102 = 2001,2002,2003,2004,2011,2012,2013,2014,
         2021,2022,2023,2024,2031,2032,2033,2034,
         2041,2042,2043,2044,2051,2052,2053,2054
   SPCFORCES(SORT1,PHASE)=ALL
   FORCES(SORT1,PHASE)=102
   STRESS(SORT1,REAL,VONMISES,BILIN)=ALL
SUBCASE 2
$ Subcase name : QStatic_45deg  
   SUBTITLE=QStatic_45deg
   SPC = 2
   LOAD = 12
$   DISPLACEMENT(SORT1,REAL)=ALL
   SET 102 = 2001,2002,2003,2004,2011,2012,2013,2014,
         2021,2022,2023,2024,2031,2032,2033,2034,
         2041,2042,2043,2044,2051,2052,2053,2054
   SPCFORCES(SORT1,PHASE)=ALL
   FORCES(SORT1,PHASE)=102
   STRESS(SORT1,REAL,VONMISES,BILIN)=ALL
SUBCASE 3
$ Subcase name : QStatic_90deg
   SUBTITLE=QStatic_90deg
   SPC = 2
   LOAD = 13
$   DISPLACEMENT(SORT1,REAL)=ALL
   SET 102 = 2001,2002,2003,2004,2011,2012,2013,2014,
         2021,2022,2023,2024,2031,2032,2033,2034,
         2041,2042,2043,2044,2051,2052,2053,2054
   SPCFORCES(SORT1,PHASE)=ALL
   FORCES(SORT1,PHASE)=102
   STRESS(SORT1,REAL,VONMISES,BILIN)=ALL
SUBCASE 4
$ Subcase name : QStatic_135deg
   SUBTITLE=QStatic_135deg
   SPC = 2
   LOAD = 14
$   DISPLACEMENT(SORT1,REAL)=ALL
   SET 102 = 2001,2002,2003,2004,2011,2012,2013,2014,
         2021,2022,2023,2024,2031,2032,2033,2034,
         2041,2042,2043,2044,2051,2052,2053,2054
   SPCFORCES(SORT1,PHASE)=ALL
   FORCES(SORT1,PHASE)=102
   STRESS(SORT1,REAL,VONMISES,BILIN)=ALL
SUBCASE 5
$ Subcase name : QStatic_180deg
   SUBTITLE=QStatic_180deg
   SPC = 2
   LOAD = 15
$   DISPLACEMENT(SORT1,REAL)=ALL
   SET 102 = 2001,2002,2003,2004,2011,2012,2013,2014,
         2021,2022,2023,2024,2031,2032,2033,2034,
         2041,2042,2043,2044,2051,2052,2053,2054
   SPCFORCES(SORT1,PHASE)=ALL
   FORCES(SORT1,PHASE)=102
   STRESS(SORT1,REAL,VONMISES,BILIN)=ALL
SUBCASE 6
$ Subcase name : QStatic_225deg
   SUBTITLE=QStatic_225deg
   SPC = 2
   LOAD = 16
$   DISPLACEMENT(SORT1,REAL)=ALL
   SET 102 = 2001,2002,2003,2004,2011,2012,2013,2014,
         2021,2022,2023,2024,2031,2032,2033,2034,
         2041,2042,2043,2044,2051,2052,2053,2054
   SPCFORCES(SORT1,PHASE)=ALL
   FORCES(SORT1,PHASE)=102
   STRESS(SORT1,REAL,VONMISES,BILIN)=ALL
SUBCASE 7
$ Subcase name : QStatic_270deg
   SUBTITLE=QStatic_270deg
   SPC = 2
   LOAD = 17
$   DISPLACEMENT(SORT1,REAL)=ALL
   SET 102 = 2001,2002,2003,2004,2011,2012,2013,2014,
         2021,2022,2023,2024,2031,2032,2033,2034,
         2041,2042,2043,2044,2051,2052,2053,2054
   SPCFORCES(SORT1,PHASE)=ALL
   FORCES(SORT1,PHASE)=102
   STRESS(SORT1,REAL,VONMISES,BILIN)=ALL
SUBCASE 8
$ Subcase name : QStatic_315deg
   SUBTITLE=QStatic_315deg
   SPC = 2
   LOAD = 18
$   DISPLACEMENT(SORT1,REAL)=ALL
   SET 102 = 2001,2002,2003,2004,2011,2012,2013,2014,
         2021,2022,2023,2024,2031,2032,2033,2034,
         2041,2042,2043,2044,2051,2052,2053,2054
   SPCFORCES(SORT1,PHASE)=ALL
   FORCES(SORT1,PHASE)=102
   STRESS(SORT1,REAL,VONMISES,BILIN)=ALL
BEGIN BULK
$ Direct Text Input for Bulk Data
PARAM    POST    0
PARAM   PRTMAXIM YES
$------$$------$$------$$------$$------$$------$$------$$------$$------$$------$
SPCADD   2       9       11      12      13      14      15 
$ Loads for Load Case : QStatic_0deg
LOAD     11      9.81      1.       2    1.4142   3
$ Loads for Load Case : QStatic_45deg
LOAD     12      9.81      1.       2    1.4142   4
$ Loads for Load Case : QStatic_90deg
LOAD     13      9.81      1.       2    1.4142   5
$ Loads for Load Case : QStatic_135deg
LOAD     14      9.81      1.       2    1.4142   6
$ Loads for Load Case : QStatic_180deg
LOAD     15      9.81      1.       2    1.4142   7
$ Loads for Load Case : QStatic_225deg
LOAD     16      9.81      1.       2    1.4142   8
$ Loads for Load Case : QStatic_270deg
LOAD     17      9.81      1.       2    1.4142   9
$ Loads for Load Case : QStatic_315deg
LOAD     18      9.81      1.       2    1.4142   10
$------$$------$$------$$------$$------$$------$$------$$------$$------$$------$
$ Displacement Constraints of Load Set : Foot1
SPC1     9       123456  190004
$ Displacement Constraints of Load Set : Foot2
SPC1     11      123456  190010
$ Displacement Constraints of Load Set : Foot3
SPC1     12      123456  190016
$ Displacement Constraints of Load Set : Foot4
SPC1     13      123456  190022
$ Displacement Constraints of Load Set : Foot4
SPC1     14      123456  190028
$ Displacement Constraints of Load Set : Foot4
SPC1     15      123456  190035
$ Gravity Loading of Load Set : QStatic_OutOfPlane
GRAV     2              68.4      0.      0.      1.
$ Gravity Loading of Load Set : QStatic_InPlane_0deg
GRAV     3              68.4      1.      0.      0.
$ Gravity Loading of Load Set : QStatic_InPlane_45deg
GRAV     4              68.4     .707107 .707107  0.
$ Gravity Loading of Load Set : QStatic_InPlane_90deg
GRAV     5              68.4      0.      1.      0.
$ Gravity Loading of Load Set : QStatic_InPlane_135deg
GRAV     6              68.4    -.707107 .707107  0.
$ Gravity Loading of Load Set : QStatic_28p8gIP_180deg
GRAV     7              68.4     -1.      0.      0.
$ Gravity Loading of Load Set : QStatic_InPlane_225deg
GRAV     8              68.4    -.707107-.707107  0.
$ Gravity Loading of Load Set : QStatic_InPlane_270deg
GRAV     9              68.4      0.     -1.      0.
$ Gravity Loading of Load Set : QStatic_InPlane_315deg
GRAV     10             68.4    .707107 -.707107  0.
$------$$------$$------$$------$$------$$------$$------$$------$$------$$------$
INCLUDE 'MODEL_NAME.bdf'
$
ENDDATA 
